
        $ From http://www.csplib.org/Problems/prob009/data/helmut.pdf
        $ Problem number 17
        $ Sequence length : 23
        language ESSENCE' 1.0
        letting sizemaster be 208
        letting sizes be sequence(1,3,4,9,10,11,12,16,17,18,22,23,24,40,41,60,62,65,67,70,71,73,75)
        